number of jobs, number of machines, initial seed, upper bound and lower bound :
10           10   0000        0000        0000
processing times :
 36 22 30 51 42 75 90 19 99 60
 80 95 80 65 66 17 32 9 86 14
 79 88 21 53 72 85 91 26 95 62
 13 29 27 17 57 20 7 57 62 15
 76 38 34 88 97 40 83 22 80 37
 96 94 71 57 86 29 6 94 34 68
 60 32 4 18 87 78 27 90 26 48
 52 84 46 78 34 35 74 9 63 76
 14 26 15 91 51 48 35 88 91 63
 9 98 20 42 55 90 82 76 97 98
